

	156065.0	42000.0
	164746.0	0.0


	145251.0	54000.0
	148469.0	48000.0
	150635.0	42000.0
	156598.0	36000.0
	164746.0	0.0


	140663.0	48000.0
	150635.0	42000.0
	156598.0	36000.0
	162907.0	30000.0
	164746.0	0.0


	135117.0	60000.0
	140663.0	48000.0
	146329.0	42000.0
	153848.0	30000.0
	160089.0	24000.0
	164746.0	0.0


